c clasp version 2.1.1
c Reading from p74.cnf
c Solving...
s SATISFIABLE

c Models        : 1+    
c Time          : 1.260s (Solving: 0.27s 1st Model: 0.27s Unsat: 0.00s)
c CPU Time      : 1.250s
c Choices       : 16673
c Conflicts     : 815
c Restarts      : 2      (Average: 407.50 Last: 132)

c Variables     : 231883 (Eliminated: 74328 Frozen:    0)
c Constraints   : 255791 (Binary: 65.6% Ternary: 33.6% Other:  0.8%)
c Lemmas        : 815    (Binary:  0.1% Ternary:  1.0% Other: 98.9%)
c   Conflict    : 815    (Average Length: 42.8) 
c   Loop        : 0      (Average Length: 0.0) 
c   Other       : 0      (Average Length: 0.0)
c   Deleted     : 0     
